2000, -294970296
509, 4002001
631, 4002002
638, 4002003
251, 4002004
423, 4002005
834, 4002006
321, 4002007
839, 4002008
115, 4002009
442, 4002010
246, 4002011
704, 4002012
557, 4002013
304, 4002014
536, 4002015
497, 4002016
536, 4002017
223, 4002018
861, 4002019
220, 4002020
274, 4002021
323, 4002022
834, 4002023
623, 4002024
868, 4002025
194, 4002026
930, 4002027
522, 4002028
608, 4002029
670, 4002030
439, 4002031
695, 4002032
905, 4002033
105, 4002034
815, 4002035
409, 4002036
669, 4002037
104, 4002038
671, 4002039
461, 4002040
566, 4002041
432, 4002042
563, 4002043
147, 4002044
748, 4002045
403, 4002046
572, 4002047
740, 4002048
700, 4002049
844, 4002050
743, 4002051
349, 4002052
684, 4002053
86, 4002054
252, 4002055
75, 4002056
235, 4002057
944, 4002058
116, 4002059
965, 4002060
645, 4002061
779, 4002062
642, 4002063
861, 4002064
133, 4002065
10, 4002066
731, 4002067
390, 4002068
65, 4002069
16, 4002070
461, 4002071
950, 4002072
482, 4002073
429, 4002074
515, 4002075
653, 4002076
552, 4002077
265, 4002078
342, 4002079
604, 4002080
361, 4002081
567, 4002082
829, 4002083
239, 4002084
730, 4002085
891, 4002086
278, 4002087
467, 4002088
700, 4002089
292, 4002090
410, 4002091
936, 4002092
224, 4002093
298, 4002094
596, 4002095
687, 4002096
739, 4002097
176, 4002098
106, 4002099
916, 4002100
562, 4002101
90, 4002102
26, 4002103
860, 4002104
758, 4002105
560, 4002106
310, 4002107
720, 4002108
169, 4002109
473, 4002110
376, 4002111
800, 4002112
847, 4002113
832, 4002114
902, 4002115
361, 4002116
326, 4002117
658, 4002118
286, 4002119
631, 4002120
893, 4002121
646, 4002122
954, 4002123
395, 4002124
920, 4002125
611, 4002126
405, 4002127
797, 4002128
362, 4002129
964, 4002130
780, 4002131
226, 4002132
48, 4002133
735, 4002134
958, 4002135
311, 4002136
772, 4002137
233, 4002138
876, 4002139
979, 4002140
928, 4002141
531, 4002142
265, 4002143
128, 4002144
470, 4002145
160, 4002146
98, 4002147
547, 4002148
534, 4002149
596, 4002150
510, 4002151
735, 4002152
184, 4002153
470, 4002154
502, 4002155
901, 4002156
373, 4002157
406, 4002158
198, 4002159
479, 4002160
65, 4002161
871, 4002162
322, 4002163
488, 4002164
332, 4002165
957, 4002166
617, 4002167
437, 4002168
316, 4002169
768, 4002170
669, 4002171
982, 4002172
411, 4002173
767, 4002174
25, 4002175
245, 4002176
607, 4002177
45, 4002178
857, 4002179
261, 4002180
660, 4002181
367, 4002182
876, 4002183
75, 4002184
180, 4002185
428, 4002186
157, 4002187
745, 4002188
279, 4002189
91, 4002190
645, 4002191
909, 4002192
226, 4002193
511, 4002194
82, 4002195
526, 4002196
388, 4002197
214, 4002198
427, 4002199
103, 4002200
684, 4002201
757, 4002202
633, 4002203
713, 4002204
668, 4002205
797, 4002206
648, 4002207
157, 4002208
96, 4002209
161, 4002210
787, 4002211
967, 4002212
543, 4002213
341, 4002214
242, 4002215
4, 4002216
272, 4002217
552, 4002218
791, 4002219
612, 4002220
590, 4002221
714, 4002222
620, 4002223
48, 4002224
37, 4002225
942, 4002226
518, 4002227
996, 4002228
650, 4002229
353, 4002230
973, 4002231
230, 4002232
437, 4002233
816, 4002234
73, 4002235
492, 4002236
50, 4002237
958, 4002238
398, 4002239
874, 4002240
499, 4002241
779, 4002242
384, 4002243
281, 4002244
767, 4002245
45, 4002246
407, 4002247
656, 4002248
742, 4002249
746, 4002250
892, 4002251
655, 4002252
682, 4002253
92, 4002254
242, 4002255
559, 4002256
920, 4002257
467, 4002258
421, 4002259
50, 4002260
836, 4002261
526, 4002262
653, 4002263
680, 4002264
664, 4002265
474, 4002266
844, 4002267
312, 4002268
541, 4002269
888, 4002270
427, 4002271
722, 4002272
319, 4002273
739, 4002274
241, 4002275
276, 4002276
540, 4002277
239, 4002278
467, 4002279
945, 4002280
941, 4002281
779, 4002282
932, 4002283
875, 4002284
972, 4002285
663, 4002286
710, 4002287
417, 4002288
804, 4002289
598, 4002290
471, 4002291
633, 4002292
124, 4002293
13, 4002294
661, 4002295
7, 4002296
859, 4002297
97, 4002298
401, 4002299
211, 4002300
941, 4002301
85, 4002302
543, 4002303
231, 4002304
732, 4002305
401, 4002306
828, 4002307
638, 4002308
319, 4002309
435, 4002310
358, 4002311
518, 4002312
574, 4002313
369, 4002314
447, 4002315
358, 4002316
259, 4002317
741, 4002318
474, 4002319
360, 4002320
66, 4002321
575, 4002322
996, 4002323
911, 4002324
337, 4002325
662, 4002326
220, 4002327
218, 4002328
424, 4002329
255, 4002330
706, 4002331
495, 4002332
202, 4002333
123, 4002334
411, 4002335
160, 4002336
338, 4002337
141, 4002338
827, 4002339
561, 4002340
862, 4002341
201, 4002342
737, 4002343
575, 4002344
295, 4002345
710, 4002346
342, 4002347
250, 4002348
278, 4002349
188, 4002350
885, 4002351
667, 4002352
976, 4002353
799, 4002354
884, 4002355
510, 4002356
811, 4002357
185, 4002358
626, 4002359
49, 4002360
14, 4002361
171, 4002362
614, 4002363
339, 4002364
140, 4002365
628, 4002366
198, 4002367
317, 4002368
713, 4002369
128, 4002370
549, 4002371
780, 4002372
91, 4002373
210, 4002374
642, 4002375
300, 4002376
281, 4002377
913, 4002378
920, 4002379
462, 4002380
407, 4002381
902, 4002382
600, 4002383
730, 4002384
472, 4002385
580, 4002386
928, 4002387
413, 4002388
242, 4002389
719, 4002390
311, 4002391
908, 4002392
509, 4002393
853, 4002394
846, 4002395
15, 4002396
707, 4002397
911, 4002398
783, 4002399
62, 4002400
985, 4002401
232, 4002402
274, 4002403
823, 4002404
556, 4002405
956, 4002406
907, 4002407
557, 4002408
189, 4002409
818, 4002410
588, 4002411
762, 4002412
501, 4002413
554, 4002414
705, 4002415
125, 4002416
481, 4002417
808, 4002418
262, 4002419
668, 4002420
134, 4002421
702, 4002422
467, 4002423
915, 4002424
245, 4002425
133, 4002426
200, 4002427
83, 4002428
416, 4002429
932, 4002430
992, 4002431
539, 4002432
915, 4002433
95, 4002434
610, 4002435
42, 4002436
531, 4002437
745, 4002438
642, 4002439
90, 4002440
602, 4002441
561, 4002442
900, 4002443
366, 4002444
368, 4002445
600, 4002446
650, 4002447
541, 4002448
107, 4002449
409, 4002450
480, 4002451
763, 4002452
528, 4002453
616, 4002454
286, 4002455
671, 4002456
806, 4002457
915, 4002458
405, 4002459
143, 4002460
138, 4002461
355, 4002462
976, 4002463
821, 4002464
237, 4002465
803, 4002466
5, 4002467
925, 4002468
599, 4002469
176, 4002470
177, 4002471
452, 4002472
280, 4002473
206, 4002474
431, 4002475
850, 4002476
432, 4002477
313, 4002478
81, 4002479
728, 4002480
838, 4002481
841, 4002482
301, 4002483
618, 4002484
102, 4002485
220, 4002486
944, 4002487
934, 4002488
377, 4002489
391, 4002490
806, 4002491
147, 4002492
760, 4002493
37, 4002494
328, 4002495
554, 4002496
33, 4002497
838, 4002498
819, 4002499
600, 4002500
568, 4002501
304, 4002502
311, 4002503
673, 4002504
614, 4002505
546, 4002506
109, 4002507
862, 4002508
86, 4002509
499, 4002510
64, 4002511
16, 4002512
554, 4002513
191, 4002514
508, 4002515
322, 4002516
954, 4002517
578, 4002518
482, 4002519
402, 4002520
412, 4002521
170, 4002522
385, 4002523
679, 4002524
700, 4002525
848, 4002526
174, 4002527
636, 4002528
782, 4002529
519, 4002530
829, 4002531
139, 4002532
998, 4002533
659, 4002534
780, 4002535
371, 4002536
55, 4002537
91, 4002538
158, 4002539
915, 4002540
120, 4002541
304, 4002542
94, 4002543
971, 4002544
911, 4002545
731, 4002546
687, 4002547
353, 4002548
410, 4002549
826, 4002550
907, 4002551
914, 4002552
817, 4002553
202, 4002554
280, 4002555
388, 4002556
549, 4002557
750, 4002558
171, 4002559
682, 4002560
260, 4002561
774, 4002562
713, 4002563
71, 4002564
178, 4002565
464, 4002566
745, 4002567
241, 4002568
200, 4002569
571, 4002570
899, 4002571
975, 4002572
720, 4002573
622, 4002574
83, 4002575
443, 4002576
230, 4002577
845, 4002578
798, 4002579
849, 4002580
632, 4002581
908, 4002582
194, 4002583
517, 4002584
791, 4002585
849, 4002586
682, 4002587
849, 4002588
652, 4002589
437, 4002590
888, 4002591
820, 4002592
827, 4002593
875, 4002594
33, 4002595
211, 4002596
826, 4002597
1, 4002598
316, 4002599
283, 4002600
586, 4002601
225, 4002602
626, 4002603
324, 4002604
845, 4002605
263, 4002606
903, 4002607
455, 4002608
238, 4002609
757, 4002610
679, 4002611
593, 4002612
11, 4002613
632, 4002614
681, 4002615
685, 4002616
830, 4002617
334, 4002618
767, 4002619
469, 4002620
223, 4002621
479, 4002622
451, 4002623
394, 4002624
91, 4002625
271, 4002626
652, 4002627
758, 4002628
600, 4002629
185, 4002630
630, 4002631
881, 4002632
662, 4002633
941, 4002634
181, 4002635
25, 4002636
214, 4002637
186, 4002638
490, 4002639
15, 4002640
246, 4002641
692, 4002642
451, 4002643
160, 4002644
891, 4002645
471, 4002646
719, 4002647
666, 4002648
46, 4002649
521, 4002650
479, 4002651
714, 4002652
807, 4002653
603, 4002654
462, 4002655
284, 4002656
20, 4002657
440, 4002658
73, 4002659
898, 4002660
266, 4002661
469, 4002662
848, 4002663
851, 4002664
98, 4002665
671, 4002666
298, 4002667
662, 4002668
517, 4002669
303, 4002670
268, 4002671
540, 4002672
424, 4002673
720, 4002674
195, 4002675
384, 4002676
737, 4002677
495, 4002678
764, 4002679
466, 4002680
47, 4002681
954, 4002682
986, 4002683
703, 4002684
277, 4002685
601, 4002686
928, 4002687
378, 4002688
191, 4002689
368, 4002690
451, 4002691
14, 4002692
794, 4002693
642, 4002694
289, 4002695
289, 4002696
888, 4002697
687, 4002698
467, 4002699
579, 4002700
457, 4002701
726, 4002702
838, 4002703
836, 4002704
331, 4002705
395, 4002706
877, 4002707
377, 4002708
787, 4002709
706, 4002710
393, 4002711
326, 4002712
729, 4002713
809, 4002714
233, 4002715
908, 4002716
407, 4002717
442, 4002718
945, 4002719
13, 4002720
314, 4002721
870, 4002722
151, 4002723
579, 4002724
239, 4002725
442, 4002726
832, 4002727
500, 4002728
183, 4002729
581, 4002730
287, 4002731
736, 4002732
955, 4002733
799, 4002734
406, 4002735
648, 4002736
775, 4002737
772, 4002738
507, 4002739
761, 4002740
347, 4002741
439, 4002742
564, 4002743
343, 4002744
684, 4002745
350, 4002746
626, 4002747
466, 4002748
647, 4002749
996, 4002750
401, 4002751
731, 4002752
959, 4002753
73, 4002754
478, 4002755
783, 4002756
65, 4002757
300, 4002758
7, 4002759
666, 4002760
215, 4002761
993, 4002762
614, 4002763
941, 4002764
849, 4002765
171, 4002766
654, 4002767
521, 4002768
228, 4002769
275, 4002770
532, 4002771
577, 4002772
615, 4002773
870, 4002774
926, 4002775
355, 4002776
761, 4002777
466, 4002778
711, 4002779
807, 4002780
980, 4002781
32, 4002782
241, 4002783
846, 4002784
421, 4002785
91, 4002786
768, 4002787
251, 4002788
208, 4002789
120, 4002790
621, 4002791
957, 4002792
312, 4002793
380, 4002794
689, 4002795
419, 4002796
740, 4002797
352, 4002798
509, 4002799
166, 4002800
803, 4002801
840, 4002802
576, 4002803
338, 4002804
505, 4002805
191, 4002806
736, 4002807
44, 4002808
351, 4002809
355, 4002810
383, 4002811
740, 4002812
110, 4002813
767, 4002814
639, 4002815
965, 4002816
43, 4002817
620, 4002818
990, 4002819
552, 4002820
517, 4002821
94, 4002822
379, 4002823
20, 4002824
290, 4002825
325, 4002826
806, 4002827
568, 4002828
813, 4002829
616, 4002830
19, 4002831
151, 4002832
82, 4002833
547, 4002834
255, 4002835
402, 4002836
536, 4002837
402, 4002838
801, 4002839
697, 4002840
181, 4002841
667, 4002842
738, 4002843
962, 4002844
205, 4002845
976, 4002846
445, 4002847
487, 4002848
84, 4002849
378, 4002850
607, 4002851
437, 4002852
398, 4002853
358, 4002854
687, 4002855
911, 4002856
997, 4002857
779, 4002858
974, 4002859
358, 4002860
443, 4002861
674, 4002862
304, 4002863
91, 4002864
35, 4002865
700, 4002866
793, 4002867
915, 4002868
940, 4002869
199, 4002870
169, 4002871
778, 4002872
317, 4002873
529, 4002874
704, 4002875
16, 4002876
554, 4002877
74, 4002878
473, 4002879
255, 4002880
205, 4002881
998, 4002882
114, 4002883
65, 4002884
325, 4002885
96, 4002886
394, 4002887
118, 4002888
234, 4002889
200, 4002890
298, 4002891
612, 4002892
958, 4002893
158, 4002894
308, 4002895
221, 4002896
429, 4002897
636, 4002898
311, 4002899
300, 4002900
973, 4002901
350, 4002902
952, 4002903
223, 4002904
830, 4002905
565, 4002906
825, 4002907
870, 4002908
131, 4002909
55, 4002910
181, 4002911
162, 4002912
647, 4002913
177, 4002914
969, 4002915
478, 4002916
8, 4002917
501, 4002918
421, 4002919
257, 4002920
415, 4002921
963, 4002922
977, 4002923
226, 4002924
718, 4002925
364, 4002926
576, 4002927
994, 4002928
344, 4002929
865, 4002930
319, 4002931
429, 4002932
603, 4002933
112, 4002934
782, 4002935
536, 4002936
328, 4002937
935, 4002938
717, 4002939
700, 4002940
138, 4002941
150, 4002942
432, 4002943
41, 4002944
474, 4002945
441, 4002946
299, 4002947
755, 4002948
841, 4002949
108, 4002950
79, 4002951
736, 4002952
614, 4002953
972, 4002954
402, 4002955
576, 4002956
699, 4002957
316, 4002958
530, 4002959
891, 4002960
876, 4002961
765, 4002962
427, 4002963
182, 4002964
591, 4002965
612, 4002966
811, 4002967
798, 4002968
452, 4002969
583, 4002970
269, 4002971
754, 4002972
37, 4002973
480, 4002974
642, 4002975
804, 4002976
455, 4002977
832, 4002978
769, 4002979
496, 4002980
79, 4002981
692, 4002982
119, 4002983
756, 4002984
510, 4002985
308, 4002986
983, 4002987
318, 4002988
989, 4002989
630, 4002990
668, 4002991
905, 4002992
289, 4002993
247, 4002994
769, 4002995
551, 4002996
295, 4002997
609, 4002998
104, 4002999
399, 4003000
168, 4003001
509, 4003002
327, 4003003
256, 4003004
214, 4003005
891, 4003006
131, 4003007
388, 4003008
429, 4003009
789, 4003010
1, 4003011
566, 4003012
218, 4003013
319, 4003014
583, 4003015
963, 4003016
847, 4003017
953, 4003018
528, 4003019
564, 4003020
660, 4003021
106, 4003022
68, 4003023
346, 4003024
615, 4003025
270, 4003026
835, 4003027
24, 4003028
45, 4003029
593, 4003030
995, 4003031
469, 4003032
558, 4003033
434, 4003034
781, 4003035
687, 4003036
244, 4003037
544, 4003038
332, 4003039
424, 4003040
475, 4003041
712, 4003042
268, 4003043
339, 4003044
650, 4003045
116, 4003046
22, 4003047
927, 4003048
913, 4003049
268, 4003050
427, 4003051
859, 4003052
793, 4003053
417, 4003054
764, 4003055
328, 4003056
150, 4003057
692, 4003058
312, 4003059
50, 4003060
415, 4003061
419, 4003062
70, 4003063
134, 4003064
172, 4003065
244, 4003066
606, 4003067
621, 4003068
79, 4003069
168, 4003070
667, 4003071
471, 4003072
347, 4003073
321, 4003074
259, 4003075
33, 4003076
864, 4003077
147, 4003078
173, 4003079
503, 4003080
820, 4003081
542, 4003082
569, 4003083
881, 4003084
706, 4003085
226, 4003086
19, 4003087
986, 4003088
879, 4003089
841, 4003090
552, 4003091
116, 4003092
663, 4003093
992, 4003094
343, 4003095
124, 4003096
996, 4003097
245, 4003098
233, 4003099
76, 4003100
735, 4003101
522, 4003102
993, 4003103
347, 4003104
516, 4003105
40, 4003106
421, 4003107
478, 4003108
330, 4003109
717, 4003110
2, 4003111
355, 4003112
808, 4003113
694, 4003114
163, 4003115
248, 4003116
865, 4003117
940, 4003118
929, 4003119
136, 4003120
384, 4003121
355, 4003122
244, 4003123
277, 4003124
940, 4003125
558, 4003126
8, 4003127
150, 4003128
389, 4003129
316, 4003130
72, 4003131
338, 4003132
300, 4003133
70, 4003134
599, 4003135
643, 4003136
79, 4003137
533, 4003138
257, 4003139
108, 4003140
714, 4003141
360, 4003142
614, 4003143
275, 4003144
702, 4003145
948, 4003146
303, 4003147
39, 4003148
637, 4003149
121, 4003150
527, 4003151
730, 4003152
211, 4003153
531, 4003154
234, 4003155
63, 4003156
198, 4003157
326, 4003158
256, 4003159
92, 4003160
463, 4003161
41, 4003162
347, 4003163
673, 4003164
263, 4003165
28, 4003166
764, 4003167
527, 4003168
682, 4003169
617, 4003170
553, 4003171
18, 4003172
454, 4003173
325, 4003174
306, 4003175
639, 4003176
740, 4003177
712, 4003178
975, 4003179
422, 4003180
430, 4003181
352, 4003182
851, 4003183
576, 4003184
839, 4003185
578, 4003186
139, 4003187
233, 4003188
526, 4003189
993, 4003190
31, 4003191
95, 4003192
554, 4003193
452, 4003194
144, 4003195
976, 4003196
174, 4003197
564, 4003198
344, 4003199
680, 4003200
902, 4003201
914, 4003202
844, 4003203
888, 4003204
40, 4003205
797, 4003206
165, 4003207
311, 4003208
508, 4003209
370, 4003210
610, 4003211
653, 4003212
516, 4003213
121, 4003214
230, 4003215
674, 4003216
276, 4003217
895, 4003218
48, 4003219
747, 4003220
690, 4003221
366, 4003222
438, 4003223
741, 4003224
70, 4003225
869, 4003226
728, 4003227
120, 4003228
267, 4003229
854, 4003230
803, 4003231
732, 4003232
292, 4003233
298, 4003234
763, 4003235
646, 4003236
359, 4003237
791, 4003238
190, 4003239
52, 4003240
237, 4003241
98, 4003242
800, 4003243
988, 4003244
639, 4003245
925, 4003246
177, 4003247
817, 4003248
562, 4003249
209, 4003250
840, 4003251
109, 4003252
780, 4003253
476, 4003254
371, 4003255
512, 4003256
844, 4003257
820, 4003258
116, 4003259
671, 4003260
941, 4003261
978, 4003262
565, 4003263
325, 4003264
690, 4003265
720, 4003266
684, 4003267
381, 4003268
315, 4003269
907, 4003270
663, 4003271
764, 4003272
615, 4003273
424, 4003274
33, 4003275
747, 4003276
128, 4003277
210, 4003278
547, 4003279
691, 4003280
129, 4003281
866, 4003282
475, 4003283
160, 4003284
386, 4003285
141, 4003286
584, 4003287
486, 4003288
802, 4003289
818, 4003290
210, 4003291
710, 4003292
92, 4003293
393, 4003294
334, 4003295
665, 4003296
394, 4003297
772, 4003298
600, 4003299
531, 4003300
836, 4003301
401, 4003302
960, 4003303
377, 4003304
562, 4003305
165, 4003306
229, 4003307
699, 4003308
565, 4003309
122, 4003310
204, 4003311
306, 4003312
130, 4003313
193, 4003314
137, 4003315
594, 4003316
718, 4003317
24, 4003318
363, 4003319
385, 4003320
442, 4003321
693, 4003322
204, 4003323
78, 4003324
296, 4003325
889, 4003326
159, 4003327
706, 4003328
883, 4003329
750, 4003330
888, 4003331
458, 4003332
427, 4003333
113, 4003334
223, 4003335
858, 4003336
270, 4003337
568, 4003338
652, 4003339
706, 4003340
840, 4003341
507, 4003342
708, 4003343
325, 4003344
27, 4003345
22, 4003346
642, 4003347
173, 4003348
255, 4003349
190, 4003350
14, 4003351
688, 4003352
83, 4003353
903, 4003354
889, 4003355
477, 4003356
145, 4003357
412, 4003358
982, 4003359
47, 4003360
629, 4003361
334, 4003362
763, 4003363
624, 4003364
350, 4003365
11, 4003366
413, 4003367
975, 4003368
395, 4003369
720, 4003370
31, 4003371
234, 4003372
879, 4003373
783, 4003374
211, 4003375
964, 4003376
46, 4003377
882, 4003378
462, 4003379
472, 4003380
389, 4003381
637, 4003382
304, 4003383
499, 4003384
109, 4003385
687, 4003386
585, 4003387
29, 4003388
959, 4003389
81, 4003390
589, 4003391
824, 4003392
240, 4003393
477, 4003394
760, 4003395
343, 4003396
247, 4003397
647, 4003398
858, 4003399
136, 4003400
218, 4003401
223, 4003402
884, 4003403
170, 4003404
524, 4003405
285, 4003406
209, 4003407
151, 4003408
937, 4003409
579, 4003410
309, 4003411
674, 4003412
848, 4003413
622, 4003414
825, 4003415
898, 4003416
696, 4003417
493, 4003418
868, 4003419
309, 4003420
58, 4003421
832, 4003422
219, 4003423
733, 4003424
445, 4003425
665, 4003426
129, 4003427
318, 4003428
252, 4003429
174, 4003430
423, 4003431
325, 4003432
177, 4003433
364, 4003434
61, 4003435
210, 4003436
254, 4003437
493, 4003438
262, 4003439
894, 4003440
310, 4003441
275, 4003442
632, 4003443
629, 4003444
624, 4003445
778, 4003446
969, 4003447
981, 4003448
636, 4003449
73, 4003450
83, 4003451
77, 4003452
187, 4003453
377, 4003454
40, 4003455
558, 4003456
762, 4003457
524, 4003458
429, 4003459
325, 4003460
87, 4003461
622, 4003462
587, 4003463
766, 4003464
98, 4003465
615, 4003466
761, 4003467
746, 4003468
717, 4003469
207, 4003470
387, 4003471
322, 4003472
812, 4003473
296, 4003474
670, 4003475
281, 4003476
462, 4003477
552, 4003478
112, 4003479
925, 4003480
889, 4003481
27, 4003482
892, 4003483
789, 4003484
313, 4003485
908, 4003486
644, 4003487
908, 4003488
257, 4003489
308, 4003490
453, 4003491
636, 4003492
647, 4003493
857, 4003494
734, 4003495
332, 4003496
140, 4003497
97, 4003498
784, 4003499
834, 4003500
41, 4003501
59, 4003502
486, 4003503
225, 4003504
339, 4003505
684, 4003506
182, 4003507
900, 4003508
664, 4003509
151, 4003510
415, 4003511
312, 4003512
471, 4003513
20, 4003514
208, 4003515
501, 4003516
283, 4003517
177, 4003518
991, 4003519
269, 4003520
848, 4003521
35, 4003522
943, 4003523
59, 4003524
268, 4003525
214, 4003526
112, 4003527
437, 4003528
367, 4003529
136, 4003530
378, 4003531
555, 4003532
835, 4003533
50, 4003534
217, 4003535
221, 4003536
44, 4003537
126, 4003538
274, 4003539
935, 4003540
408, 4003541
865, 4003542
476, 4003543
320, 4003544
295, 4003545
202, 4003546
384, 4003547
854, 4003548
43, 4003549
897, 4003550
377, 4003551
331, 4003552
369, 4003553
392, 4003554
396, 4003555
947, 4003556
550, 4003557
333, 4003558
945, 4003559
923, 4003560
763, 4003561
557, 4003562
71, 4003563
451, 4003564
321, 4003565
642, 4003566
411, 4003567
820, 4003568
421, 4003569
622, 4003570
705, 4003571
771, 4003572
20, 4003573
829, 4003574
665, 4003575
219, 4003576
176, 4003577
959, 4003578
851, 4003579
558, 4003580
520, 4003581
122, 4003582
963, 4003583
453, 4003584
867, 4003585
507, 4003586
957, 4003587
762, 4003588
686, 4003589
30, 4003590
513, 4003591
69, 4003592
920, 4003593
473, 4003594
879, 4003595
476, 4003596
629, 4003597
477, 4003598
300, 4003599
416, 4003600
735, 4003601
116, 4003602
131, 4003603
806, 4003604
822, 4003605
411, 4003606
949, 4003607
739, 4003608
793, 4003609
745, 4003610
545, 4003611
447, 4003612
259, 4003613
590, 4003614
451, 4003615
755, 4003616
782, 4003617
165, 4003618
281, 4003619
858, 4003620
162, 4003621
193, 4003622
848, 4003623
707, 4003624
287, 4003625
395, 4003626
483, 4003627
196, 4003628
582, 4003629
882, 4003630
468, 4003631
176, 4003632
283, 4003633
521, 4003634
945, 4003635
986, 4003636
581, 4003637
324, 4003638
695, 4003639
687, 4003640
636, 4003641
66, 4003642
666, 4003643
136, 4003644
594, 4003645
924, 4003646
555, 4003647
581, 4003648
18, 4003649
564, 4003650
719, 4003651
218, 4003652
620, 4003653
239, 4003654
935, 4003655
5, 4003656
86, 4003657
147, 4003658
146, 4003659
565, 4003660
515, 4003661
817, 4003662
899, 4003663
908, 4003664
456, 4003665
763, 4003666
41, 4003667
998, 4003668
529, 4003669
718, 4003670
385, 4003671
191, 4003672
24, 4003673
489, 4003674
982, 4003675
657, 4003676
702, 4003677
740, 4003678
794, 4003679
707, 4003680
408, 4003681
361, 4003682
9, 4003683
466, 4003684
674, 4003685
830, 4003686
876, 4003687
515, 4003688
631, 4003689
801, 4003690
419, 4003691
950, 4003692
414, 4003693
266, 4003694
162, 4003695
724, 4003696
662, 4003697
155, 4003698
780, 4003699
738, 4003700
939, 4003701
771, 4003702
179, 4003703
500, 4003704
637, 4003705
390, 4003706
61, 4003707
946, 4003708
896, 4003709
142, 4003710
135, 4003711
869, 4003712
494, 4003713
437, 4003714
166, 4003715
730, 4003716
950, 4003717
104, 4003718
977, 4003719
21, 4003720
712, 4003721
173, 4003722
536, 4003723
839, 4003724
30, 4003725
893, 4003726
279, 4003727
785, 4003728
269, 4003729
210, 4003730
635, 4003731
686, 4003732
609, 4003733
65, 4003734
859, 4003735
340, 4003736
956, 4003737
849, 4003738
752, 4003739
539, 4003740
662, 4003741
186, 4003742
973, 4003743
556, 4003744
286, 4003745
983, 4003746
166, 4003747
418, 4003748
431, 4003749
268, 4003750
381, 4003751
764, 4003752
203, 4003753
527, 4003754
696, 4003755
584, 4003756
548, 4003757
666, 4003758
980, 4003759
433, 4003760
405, 4003761
831, 4003762
269, 4003763
82, 4003764
437, 4003765
298, 4003766
874, 4003767
249, 4003768
667, 4003769
219, 4003770
589, 4003771
940, 4003772
322, 4003773
961, 4003774
881, 4003775
414, 4003776
750, 4003777
335, 4003778
906, 4003779
370, 4003780
669, 4003781
1, 4003782
680, 4003783
222, 4003784
863, 4003785
248, 4003786
875, 4003787
986, 4003788
342, 4003789
393, 4003790
799, 4003791
118, 4003792
78, 4003793
250, 4003794
418, 4003795
886, 4003796
909, 4003797
77, 4003798
697, 4003799
753, 4003800
987, 4003801
250, 4003802
398, 4003803
549, 4003804
595, 4003805
577, 4003806
180, 4003807
109, 4003808
448, 4003809
181, 4003810
56, 4003811
51, 4003812
904, 4003813
177, 4003814
378, 4003815
349, 4003816
820, 4003817
718, 4003818
641, 4003819
267, 4003820
949, 4003821
763, 4003822
562, 4003823
407, 4003824
96, 4003825
99, 4003826
34, 4003827
779, 4003828
203, 4003829
210, 4003830
854, 4003831
230, 4003832
485, 4003833
672, 4003834
986, 4003835
799, 4003836
489, 4003837
20, 4003838
110, 4003839
903, 4003840
259, 4003841
977, 4003842
258, 4003843
931, 4003844
801, 4003845
196, 4003846
619, 4003847
992, 4003848
794, 4003849
171, 4003850
491, 4003851
21, 4003852
466, 4003853
407, 4003854
548, 4003855
971, 4003856
660, 4003857
930, 4003858
749, 4003859
296, 4003860
558, 4003861
33, 4003862
411, 4003863
559, 4003864
928, 4003865
603, 4003866
48, 4003867
609, 4003868
284, 4003869
256, 4003870
976, 4003871
806, 4003872
431, 4003873
923, 4003874
390, 4003875
452, 4003876
798, 4003877
416, 4003878
883, 4003879
599, 4003880
514, 4003881
685, 4003882
783, 4003883
766, 4003884
340, 4003885
820, 4003886
205, 4003887
188, 4003888
512, 4003889
295, 4003890
547, 4003891
300, 4003892
198, 4003893
411, 4003894
415, 4003895
452, 4003896
988, 4003897
661, 4003898
507, 4003899
290, 4003900
301, 4003901
79, 4003902
385, 4003903
865, 4003904
484, 4003905
611, 4003906
294, 4003907
229, 4003908
913, 4003909
374, 4003910
891, 4003911
706, 4003912
410, 4003913
622, 4003914
959, 4003915
72, 4003916
187, 4003917
492, 4003918
438, 4003919
297, 4003920
62, 4003921
147, 4003922
644, 4003923
297, 4003924
531, 4003925
350, 4003926
554, 4003927
341, 4003928
505, 4003929
437, 4003930
288, 4003931
292, 4003932
354, 4003933
928, 4003934
624, 4003935
489, 4003936
138, 4003937
474, 4003938
273, 4003939
654, 4003940
968, 4003941
95, 4003942
361, 4003943
929, 4003944
804, 4003945
37, 4003946
889, 4003947
994, 4003948
815, 4003949
406, 4003950
141, 4003951
67, 4003952
245, 4003953
852, 4003954
633, 4003955
430, 4003956
189, 4003957
476, 4003958
892, 4003959
530, 4003960
71, 4003961
131, 4003962
24, 4003963
518, 4003964
53, 4003965
259, 4003966
431, 4003967
268, 4003968
690, 4003969
254, 4003970
231, 4003971
407, 4003972
925, 4003973
369, 4003974
151, 4003975
868, 4003976
182, 4003977
642, 4003978
735, 4003979
204, 4003980
160, 4003981
402, 4003982
131, 4003983
240, 4003984
877, 4003985
308, 4003986
1, 4003987
211, 4003988
813, 4003989
411, 4003990
293, 4003991
499, 4003992
822, 4003993
911, 4003994
363, 4003995
192, 4003996
132, 4003997
192, 4003998
133, 4003999
827, 4004000
